Version identifier: 22.1.0.0 | 2022-03-09 | 1a383f8ce
CPXPARAM_Threads                                 1
CPXPARAM_MIP_Strategy_VariableSelect             3
CPXPARAM_TimeLimit                               599.99998414599997
1 of 1 MIP starts provided solutions.
MIP start 'm1' defined initial solution with objective 1.0000.
Tried aggregator 1 time.
MIP Presolve eliminated 18 rows and 0 columns.
MIP Presolve modified 1 coefficients.
Reduced MIP has 5001 rows, 10000 columns, and 126014 nonzeros.
Reduced MIP has 10000 binaries, 0 generals, 0 SOSs, and 0 indicators.
Presolve time = 0.07 sec. (59.32 ticks)
Probing time = 0.01 sec. (4.83 ticks)
Tried aggregator 1 time.
Detecting symmetries...
Reduced MIP has 5001 rows, 10000 columns, and 126014 nonzeros.
Reduced MIP has 10000 binaries, 0 generals, 0 SOSs, and 0 indicators.
Presolve time = 0.09 sec. (71.24 ticks)
Probing time = 0.01 sec. (4.83 ticks)
Clique table members: 2990.
MIP emphasis: balance optimality and feasibility.
MIP search method: dynamic search.
Parallel mode: none, using 1 thread.
Root relaxation solution time = 6.10 sec. (5575.00 ticks)

        Nodes                                         Cuts/
   Node  Left     Objective  IInf  Best Integer    Best Bound    ItCnt     Gap

*     0+    0                            1.0000    10000.0000              --- 
      0     0      500.0000  2137        1.0000      500.0000    12309     --- 
      0     0      500.0000   225        1.0000    Cliques: 3    13110     --- 
      0     0      500.0000   476        1.0000     Cuts: 132    17220     --- 
*     0+    0                          500.0000      500.0000             0.00%
      0     0        cutoff            500.0000      500.0000    17220    0.00%
Elapsed time = 115.03 sec. (115047.53 ticks, tree = 0.01 MB, solutions = 2)

Clique cuts applied:  16
Zero-half cuts applied:  39
Lift and project cuts applied:  5
Gomory fractional cuts applied:  6

Root node processing (before b&c):
  Real time             =  115.03 sec. (115048.36 ticks)
Sequential b&c:
  Real time             =    0.00 sec. (0.00 ticks)
                          ------------
Total (root+branch&cut) =  115.03 sec. (115048.36 ticks)
15
0
16
15
0
7
14
18
8
5
13
8
12
18
9
5
18
8
14
1
9
12
13
9
12
1
9
14
1
11
14
1
9
14
1
8
12
13
11
5
13
8
12
13
8
5
18
19
5
18
9
12
13
9
5
18
8
14
1
9
5
18
19
5
18
9
5
13
11
5
13
9
5
16
2
15
7
7
15
2
7
15
7
16
15
7
6
15
7
16
10
3
16
17
11
2
17
19
7
17
11
16
17
8
7
10
8
7
10
9
6
10
7
16
15
0
7
15
2
6
15
0
2
15
6
2
17
19
0
10
19
0
17
19
0
10
19
0
17
19
0
10
8
7
14
1
11
14
1
9
14
1
8
14
1
3
14
4
18
14
4
3
10
4
3
14
4
18
5
19
18
5
9
13
12
9
1
14
11
1
14
9
1
14
11
1
14
9
2
10
7
11
17
2
19
17
2
0
15
16
0
15
6
2
15
6
0
15
16
0
15
6
2
15
0
7
15
16
7
10
3
4
14
3
18
5
19
18
5
8
7
14
8
1
14
9
2
10
3
4
10
7
16
15
0
16
17
3
4
17
2
8
14
1
9
14
1
11
14
1
7
14
11
1
14
9
1
14
11
1
5
19
18
5
8
13
12
8
13
12
9
13
12
8
1
5
19
18
5
19
1
5
19
18
12
9
13
5
8
18
14
4
3
17
16
11
17
0
11
5
13
8
5
18
11
5
13
8
5
13
9
12
13
11
12
13
11
5
18
19
5
2
6
15
2
0
15
0
16
15
0
16
17
3
4
10
3
4
10
3
4
17
3
4
10
3
4
10
16
8
17
7
11
17
16
7
15
6
2
9
14
1
11
14
1
11
5
18
9
12
18
9
5
13
11
12
13
8
5
18
9
12
13
11
12
0
13
12
9
18
5
19
18
5
9
18
5
8
13
5
11
13
5
8
18
14
3
4
17
3
4
17
16
11
17
16
7
15
16
7
15
6
7
15
6
2
15
6
0
15
16
0
15
6
0
15
16
7
15
7
16
15
7
2
17
19
2
17
19
0
18
8
0
17
9
7
10
8
16
17
4
3
10
4
6
10
11
7
10
9
7
10
9
2
10
9
2
17
8
16
17
9
2
10
4
3
10
4
3
10
Primal:	500
Dual:	500
Status:	Optimal
Time:	115.03
